50
1000 1000 1000 
572 665 729 
482 640 546 
264 594 465
349 566 483 
276 660 542 
745 422 604 
434 622 644 
446 433 486 
668 506 268 
405 635 486 
486 320 542 
554 549 604 
392 491 324 
459 528 465 
426 579 276 
728 359 273 
644 465 745 
382 323 268 
268 352 434 
324 512 604 
277 426 268 
254 685 656 
483 532 467 
678 414 745 
546 590 467
716 640 537 
542 400 417 
634 596 273 
497 696 439 
417 300 497 
290 605 426 
321 520 446 
543 290 339 
599 269 434 
467 679 349 
583 421 554 
729 723 465 
465 590 483 
614 585 446 
446 327 554 
734 616 277 
479 606 459 
656 278 277 
537 355 264 
604 519 583 
746 596 467 
439 281 339 
339 405 572 
273 526 467 
625 568 426 
gcut12_3d
